Instance Name : rc102
Date : 2022-07-18
Solution
Route 1 : 64 86 87 59 97 75 58
Route 2 : 69 88 99 57 74 52
Route 3 : 42 44 61 81 54 93 96
Route 4 : 2 45 8 7 6 46 4 5 3 1
Route 5 : 85 63 76 51 22 49 20 24
Route 6 : 90 53 55 68
Route 7 : 91 95 62 67 71 56 66
Route 8 : 98 47 73 79 78 60 100 70
Route 9 : 72 39 36 40 38 41 43 35 37
Route 10 : 94 27 29 84 89
Route 11 : 92 33 30 28 26 32 31 34 50 80
Route 12 : 82 14 11 15 16 9 10 13 17 12
Route 13 : 65 83 19 23 21 18 48 25 77
